daniel3.out
1110011000010010100100100010
0100001111100000000001001010
1110111001010111000110000000
0100001001110110100110111000
0001110011100100111110011101
0111000000000001100001001000
0110001000001001111000100100
0000011111010000001100001010
0011101010110010000111110111
1000100100010110011000010010
0010000011101101110000010000
0110010001000101010100010101
0011011110000100010011011000
0100001001011001000010110111
0010000100111001010110100011
0000010001000001010101000110
0101110100001100011101100110
1000011001000110101000010000
0110011000110010000010000101
0101000000111101101100011000
0011111011000010000010001000
1010000001010010000101101011
1101101010011111111110010001
0000000011000010101101001010
0010001110000000100000101110
1000001001100100000010010100
0001100011011101010010001011
0101110000111001010101101000
--->
1001000010001001101000100001
0001100011011100000101000100
1010000000010101000100101100
0100001100010000100000100100
1101110010011100001000000100
1100010001000010000011100010
0101011010000001001100011100
0100100011011001100000001001
0001100000010110010011110000
0110110100000000011111010110
1011000011110001000000110011
0100110000100101010010010000
0001110111100100001111000001
1101010001000110001000000101
1000001011001011000100111000
0011010010100110010000000000
0000000010001101000101101111
1001000100110011001011101101
0110111001000000101000010000
1100000100001101000110011100
1000110011000010001011101001
0000001001010000110001101110
0111000110011000100000011000
1111011001001010000001101010
0000001000100001010111100011
0001011000110110100001010000
1011000010000100001110101011
0100001001000001010101100010
--->
1011100110111111111100100011
1111100011110101101111111111
0111000110010110000011111110
0001111100110110000000010110
0000110110111100000000100111
0001000111001110001011110011
0100011110100011100111111111
1000000111111101111111000100
1100000010110111010000010110
1100010011011010111100000110
1000001011110010010000010111
0100011100001000101010010010
0101000010101100011011000011
0111010000001001001001111011
1001011110101001001000011001
0000000010010000101011000011
1011100110101001101100101001
1111111111111111111010000001
0011111110111100111000000011
0011000101000111011010000101
1100011111101111111000000001
1111111001011001110010000011
1001110111011101110000000011
1001111011101101100000001010
1101000101101001100000000111
1011111101111111110000010100
1111111101101101111100000111
0101000111000011010000100110
--->
0000000000000000000000000000
0000000000000000000000000000
0000000000000000000000000000
0000000000000000000000000000
0000000000000000000000000000
0000000000000000000000000000
0000000000000000000000000000
0000000000000000000000000000
0000000000000000000000000000
0000000000000000000000000000
0000000000000000000000000000
0110011000001000101011101000
0101010100001100101010001000
0101010010001010101011001000
0101011111001001101010001000
0110010000101000101011101110
0000000000000000000000000000
0000000000000000000000000000
0000000000000000000000000000
0000000000000000000000000000
0000000000000000000000000000
0000000000000000000000000000
0000000000000000000000000000
0000000000000000000000000000
0000000000000000000000000000
0000000000000000000000000000
0000000000000000000000000000
0000000000000000000000000000