daniel3.in.cnf.out
c ---- [ banner ] ------------------------------------------------------------
c
c KISSAT SAT Solver
c Copyright (c) 2019-2020 Armin Biere JKU Linz
c 
c Version 1.0.3 baef4609163f542dc08f43aef02ce8da0581a2b5
c gcc (Ubuntu 7.5.0-3ubuntu1~18.04) 7.5.0 -W -Wall -O3 -DNEMBEDDED -DNDEBUG -DNMETRICS -DNSTATISTICS
c Fri Sep 11 16:34:13 CEST 2020 Linux dw-Precision-Tower-7910 5.0.0-36-generic x86_64
c
c ---- [ parsing ] -----------------------------------------------------------
c
c opened and reading DIMACS file:
c 
c   daniel3.in.cnf
c 
c parsed 'p cnf 3136 447664' header
c closing input after reading 17420330 bytes (17 MB)
c finished parsing after 0.18 seconds
c
c ---- [ solving ] -----------------------------------------------------------
c
c  seconds reductions redundant irredundant
c         MB   restarts    trail      variables
c          level  conflicts   glue         remaining
c
c *  0.18 33 0  0  0   0   0 0% 0 446880 2352 75%
c {  0.18 33 0  0  0   0   0 0% 0 446880 2352 75%
c -  0.22 35 253  1 22 300 205 18% 7 365052 2352 75%
c -  0.24 36 204  2 68 900 515 23% 7 365052 2352 75%
c }  0.24 36 181  2 72 1000 603 21% 7 365052 2352 75%
c [  0.24 36 0  2 72 1000 603 0% 0 365052 2352 75%
c O  0.25 36 198  2 72 1006 608 11% 3 365052 2352 75%
c -  0.27 36 654  3 72 1801 711 38% 18 365052 2352 75%
c u  0.34 37 661  3 73 2501 1186 39% 20 365052 2352 75%
c v  0.35 37 661  3 73 2501 1173 39% 20 365052 2352 75%
c ]  0.37 37 623  3 73 2591 1254 37% 19 365052 2352 75%
c {  0.37 37 181  3 73 2591 1254 21% 7 365052 2352 75%
c -  0.39 37 148  4 97 3004 826 18% 7 365052 2352 75%
c I  0.39 37 148  4 97 3008 830 18% 7 365052 2352 75%
c -  0.42 37 102  5 214 4504 1366 14% 7 365052 2352 75%
c }  0.42 37 102  5 214 4591 1432 15% 7 365052 2352 75%
c [  0.42 37 623  5 214 4591 1432 37% 19 365052 2352 75%
c ]  0.46 38 424  5 215 5958 2695 41% 15 365052 2352 75%
c {  0.46 38 102  5 215 5958 2695 15% 7 365052 2352 75%
c B  0.47 38 108  5 215 6013 2742 16% 7 365052 2352 75%
c
c  seconds   reductions   redundant  irredundant
c         MB     restarts        trail      variables
c           level    conflicts      glue         remaining
c
c -  0.48 38 100  6 326 6304 1785 14% 7 365052 2352 75%
c u  0.60 39 88  6 412 7502 2691 13% 7 365052 2352 75%
c v  0.64 39 88  6 412 7502 2650 13% 7 365052 2352 75%
c -  0.75 39 88  7 456 8405 2173 13% 7 365052 2352 75%
c W  0.91 41 84  7 590 10014 3594 13% 7 365052 2352 75%
c -  0.95 41 83  8 629 10805 2833 13% 7 365052 2352 75%
c }  0.96 41 83  8 642 10959 2965 13% 7 365052 2352 75%
c [  0.96 41 424  8 642 10959 2965 41% 15 365052 2352 75%
c s  2.66 44 275  8 643 12502 4337 30% 13 364943 2352 75%
c -  2.94 44 243  9 644 13506 3086 27% 13 364943 2352 75%
c u  3.07 44 223  9 644 15002 4291 27% 12 364943 2352 75%
c v  3.09 44 223  9 644 15002 4260 27% 12 364943 2352 75%
c O  3.14 44 223  9 644 15016 4271 27% 12 364943 2352 75%
c -  3.20 44 209 10 645 16507 3033 28% 12 364943 2352 75%
c ]  3.23 44 203 10 647 17774 4161 29% 11 364943 2352 75%
c {  3.23 44 83 10 647 17774 4161 13% 7 364943 2352 75%
c -  3.29 44 82 11 916 19808 3677 13% 7 364943 2352 75%
c B  3.33 44 84 11 1011 21017 4735 13% 7 364943 2352 75%
c -  3.38 44 84 12 1146 23408 4644 13% 7 364943 2352 75%
c u  3.48 44 85 12 1223 25003 5981 13% 7 364943 2352 75%
c
c  seconds  reductions     redundant  irredundant
c         MB     restarts         trail      variables
c          level      conflicts      glue         remaining
c
c v  3.50 44 85 12 1223 25003 5945 13% 7 364943 2352 75%
c -  3.58 44 81 13 1311 27311 5371 13% 7 364943 2352 75%
c }  3.59 44 80 13 1349 27775 5772 13% 7 364943 2352 75%
c [  3.59 44 203 13 1349 27775 5772 29% 11 364943 2352 75%
c W  3.66 46 201 13 1349 28019 5993 29% 11 364943 2352 75%
c -  3.73 46 187 14 1351 31511 5414 30% 11 364943 2352 75%
c -  3.84 46 188 15 1354 36011 5213 29% 13 364943 2352 75%
c I  3.84 46 188 15 1354 36020 5222 29% 13 364943 2352 75%
c ^  5.36 46 200 15 1355 37504 6554 29% 13 364943 2352 75%
c u  5.51 46 200 15 1355 37504 6385 29% 13 364943 2352 75%
c v  5.54 46 200 15 1355 37504 6324 29% 13 364943 2352 75%
c -  5.72 46 235 16 1355 40811 5336 32% 13 364943 2352 75%
c ]  5.81 46 251 16 1358 43431 7628 34% 13 364943 2352 75%
c {  5.81 46 80 16 1358 43431 7628 13% 7 364943 2352 75%
c B  5.93 46 80 16 1652 45022 9090 13% 7 364943 2352 75%
c -  6.00 47 79 17 1803 45911 6070 13% 7 364943 2352 75%
c -  6.36 47 83 18 2446 51312 7212 13% 8 364943 2352 75%
c u  6.55 47 82 18 2567 52507 8118 13% 8 364943 2352 75%
c v  6.58 47 82 18 2567 52507 8055 13% 8 364943 2352 75%
c W  6.88 47 86 18 2676 55023 10269 14% 7 364943 2352 75%
c
c  seconds  reductions     redundant  irredundant
c         MB     restarts         trail      variables
c          level      conflicts      glue         remaining
c
c -  7.00 47 86 19 2849 57012 8069 14% 8 364943 2352 75%
c }  7.15 47 85 19 3086 60432 11080 13% 8 364943 2352 75%
c [  7.15 47 251 19 3086 60432 11080 34% 13 364943 2352 75%
c -  7.24 47 233 20 3088 63012 8520 33% 13 364943 2352 75%
c #  7.37 47 226 20 3089 66026 11211 33% 14 364943 2352 75%
c -  7.48 47 216 21 3091 69312 8213 32% 14 364943 2352 75%
c u  7.61 47 214 21 3092 70009 8664 32% 14 364943 2352 75%
c v  7.64 47 214 21 3092 70009 8613 32% 14 364943 2352 75%
c s  7.94 47 204 21 3093 75005 13074 30% 14 364910 2352 75%
c ^  8.38 47 204 21 3093 75005 13074 30% 14 364910 2352 75%
c -  8.47 47 205 22 3094 75912 8212 30% 14 364910 2352 75%
c B  8.61 47 220 22 3095 78027 10170 33% 14 364910 2352 75%
c -  8.86 48 231 23 3099 82812 8619 34% 14 364910 2352 75%
c u  9.31 48 255 23 3100 90009 15043 41% 15 364910 2352 75%
c v  9.34 48 255 23 3100 90009 14989 41% 15 364910 2352 75%
c -  9.41 48 255 24 3100 90012 8596 41% 15 364910 2352 75%
c W  9.54 48 266 24 3100 91029 9556 42% 15 364910 2352 75%
c ]  9.77 48 274 24 3101 96466 14498 43% 15 364910 2352 75%
c {  9.77 48 85 24 3101 96466 14498 13% 8 364910 2352 75%
c -  9.83 48 84 25 3146 97513 8896 13% 7 364910 2352 75%
c
c  seconds  reductions       redundant  irredundant
c         MB     restarts           trail      variables
c          level      conflicts        glue         remaining
c
c F 10.22 48 84 25 3705 105030 15609 13% 8 364910 2352 75%
c - 10.25 48 84 26 3734 105313 10705 13% 8 364910 2352 75%
c u 10.80 48 83 26 4432 112509 17116 13% 8 364910 2352 75%
c v 10.83 48 83 26 4432 112509 17069 13% 8 364910 2352 75%
c - 10.96 49 82 27 4588 113413 12498 13% 8 364910 2352 75%
c B 11.34 49 83 27 5093 120031 18491 13% 8 364910 2352 75%
c - 11.46 49 85 28 5271 121813 13769 13% 8 364910 2352 75%
c } 11.50 36 86 28 5306 122466 14354 13% 8 364910 2352 75%
c [ 11.50 36 274 28 5306 122466 14354 43% 15 364910 2352 75%
c s 11.69 41 270 28 5308 125005 16768 43% 15 364899 2352 75%
c ^ 12.14 45 270 28 5308 125005 16768 43% 15 364899 2352 75%
c - 12.48 46 272 29 5311 130513 13975 43% 15 364899 2352 75%
c W 12.84 46 271 29 5313 136032 19019 43% 14 364899 2352 75%
c u 13.03 46 268 29 5314 137509 20051 43% 14 364899 2352 75%
c v 13.06 46 268 29 5314 137509 19999 43% 14 364899 2352 75%
c - 13.20 46 264 30 5315 139518 13145 42% 14 364899 2352 75%
c - 13.69 47 283 31 5320 148820 12507 45% 16 364899 2352 75%
c O 13.86 47 282 31 5320 153033 16243 44% 16 364899 2352 75%
c - 14.15 47 287 32 5322 158421 12696 45% 16 364899 2352 75%
c u 14.63 47 301 32 5326 165009 18541 47% 16 364899 2352 75%
c
c  seconds   reductions       redundant   irredundant
c         MB      restarts           trail       variables
c           level      conflicts         glue         remaining
c
c v 14.67 47 301 32 5326 165009 18478 47% 16 364899 2352 75%
c - 14.86 47 303 33 5327 168321 12873 47% 16 364899 2352 75%
c ] 14.97 48 304 33 5328 170638 15002 47% 16 364899 2352 75%
c { 14.97 48 86 33 5328 170638 15002 13% 8 364899 2352 75%
c B 14.99 48 86 33 5337 171036 15362 13% 8 364899 2352 75%
c - 15.63 49 90 34 6483 178521 14392 14% 8 364899 2352 75%
c s 16.38 42 91 34 7829 187507 22737 13% 8 364881 2352 75%
c ^ 16.83 46 91 34 7829 187507 22737 13% 8 364881 2352 75%
c - 16.99 47 91 35 8023 189021 16271 13% 8 364881 2352 75%
c W 17.20 47 92 35 8136 190037 17212 13% 8 364881 2352 75%
c u 17.80 47 93 35 8835 195009 21551 13% 8 364881 2352 75%
c v 17.84 47 93 35 8835 195009 21502 13% 8 364881 2352 75%
c - 18.30 48 95 36 9389 199821 17209 14% 8 364881 2352 75%
c } 18.98 48 97 36 10452 207638 24514 14% 8 364881 2352 75%
c [ 18.98 48 304 36 10452 207638 24514 47% 16 364881 2352 75%
c I 19.12 49 302 36 10454 210038 26743 47% 16 364881 2352 75%
c - 19.17 49 304 37 10454 210923 17939 47% 16 364881 2352 75%
c - 19.64 49 320 38 10460 222323 17266 48% 16 364881 2352 75%
c u 20.05 39 343 38 10464 227509 21506 49% 16 364881 2352 75%
c v 20.09 40 343 38 10464 227509 21427 49% 16 364881 2352 75%
c
c  seconds   reductions        redundant   irredundant
c         MB      restarts            trail       variables
c           level       conflicts         glue         remaining
c
c B 20.36 42 344 38 10465 231040 24665 49% 16 364881 2352 75%
c - 20.54 43 357 39 10466 234023 16050 51% 16 364881 2352 75%
c - 21.23 44 376 40 10469 246024 16319 53% 17 364881 2352 75%
c W 21.64 47 369 40 10473 253041 22765 52% 16 364881 2352 75%
c - 21.87 47 363 41 10476 258325 17273 52% 16 364881 2352 75%
c s 22.07 47 358 41 10479 262511 20974 51% 16 364873 2352 75%
c ^ 22.52 47 358 41 10479 262511 20974 51% 16 364873 2352 75%
c u 22.73 47 358 41 10479 262511 20437 51% 16 364873 2352 75%
c v 22.78 47 358 41 10479 262511 20231 51% 16 364873 2352 75%
c - 23.15 47 346 42 10481 270929 17675 49% 16 364873 2352 75%
c # 23.40 47 342 42 10481 276042 22283 49% 16 364873 2352 75%
c - 23.81 48 341 43 10482 283829 18425 49% 16 364873 2352 75%
c - 24.66 49 345 44 10484 297030 19048 52% 17 364873 2352 75%
c u 25.04 49 346 44 10486 300012 21405 52% 17 364873 2352 75%
c v 25.08 49 346 44 10486 300012 21196 52% 17 364873 2352 75%
c B 25.17 49 346 44 10486 300043 21224 52% 17 364873 2352 75%
c - 25.71 49 361 45 10492 310530 18557 52% 17 364873 2352 75%
c ] 26.10 49 365 45 10496 319344 26708 52% 18 364873 2352 75%
c { 26.10 49 97 45 10496 319344 26708 14% 8 364873 2352 75%
c - 26.49 50 98 46 10868 324330 19835 14% 8 364873 2352 75%
c
c  seconds  reductions        redundant  irredundant
c         MB     restarts            trail      variables
c          level       conflicts        glue         remaining
c
c W 26.66 50 98 46 10887 325044 20480 14% 8 364873 2352 75%
c - 27.31 51 98 47 11266 338430 23249 14% 8 364873 2352 75%
c u 27.60 44 98 47 11353 340013 24182 14% 8 364873 2352 75%
c v 27.65 44 98 47 11353 340013 23996 14% 8 364873 2352 75%
c s 28.29 46 97 47 11759 350011 33071 14% 8 364869 2352 75%
c ! 28.74 48 97 47 11759 350011 33071 14% 8 364869 2352 75%
c F 28.84 48 97 47 11798 351046 34020 14% 8 364869 2352 75%
c - 28.97 48 97 48 11890 352830 25874 14% 8 364869 2352 75%
c - 29.86 49 96 49 12636 367532 27889 14% 8 364869 2352 75%
c } 29.98 49 96 49 12793 369348 29577 14% 8 364869 2352 75%
c [ 29.98 49 365 49 12793 369348 29577 52% 18 364869 2352 75%
c B 30.36 50 353 49 12798 378047 37428 50% 17 364869 2352 75%
c u 30.80 50 349 49 12799 382514 40914 50% 17 364869 2352 75%
c v 30.85 50 349 49 12799 382514 40677 50% 17 364869 2352 75%
c - 31.29 50 349 50 12799 382532 27020 50% 17 364869 2352 75%
c - 32.33 42 366 51 12807 397834 25509 53% 18 364869 2352 75%
c W 33.20 48 377 51 12810 406049 33326 56% 18 364869 2352 75%
c - 33.60 50 380 52 12814 413436 24902 56% 18 364869 2352 75%
c u 34.37 51 368 52 12821 427515 36775 54% 17 364869 2352 75%
c v 34.43 51 368 52 12821 427515 36599 54% 17 364869 2352 75%
c
c  seconds   reductions        redundant   irredundant
c         MB      restarts            trail       variables
c           level       conflicts         glue         remaining
c
c - 34.93 52 365 53 12821 429336 25891 54% 17 364869 2352 75%
c O 35.15 52 356 53 12822 435050 31029 52% 17 364869 2352 75%
c - 35.68 53 350 54 12823 445536 26663 52% 17 364869 2352 75%
c - 36.78 48 358 55 12828 462037 27092 54% 17 364869 2352 75%
c ] 36.83 48 359 55 12829 462953 27927 54% 17 364869 2352 75%
c { 36.83 48 96 55 12829 462953 27927 14% 8 364869 2352 75%
c B 37.02 49 96 55 12955 465051 29859 14% 8 364869 2352 75%
c u 37.83 50 96 55 13440 475015 38246 15% 8 364869 2352 75%
c v 37.89 50 96 55 13440 475015 38048 15% 8 364869 2352 75%
c - 38.53 51 96 56 13590 478837 29777 15% 8 364869 2352 75%
c - 39.58 52 95 57 14445 495938 33767 15% 8 364869 2352 75%
c W 39.68 52 95 57 14445 496052 33862 15% 8 364869 2352 75%
c - 40.80 52 95 58 15265 513338 36548 15% 8 364869 2352 75%
c u 41.85 53 95 58 15874 525017 46609 15% 8 364869 2352 75%
c v 41.92 53 95 58 15874 525017 46361 15% 8 364869 2352 75%
c } 42.54 53 95 58 16052 527953 49033 15% 8 364869 2352 75%
c [ 42.54 53 359 58 16052 527953 49033 54% 17 364869 2352 75%
c I 42.59 53 359 58 16052 528053 49118 54% 17 364869 2352 75%
c - 42.74 53 354 59 16054 531038 37475 53% 17 364869 2352 75%
c - 43.49 41 326 60 16064 549038 36550 49% 17 364869 2352 75%
c
c  seconds   reductions        redundant   irredundant
c         MB      restarts            trail       variables
c           level       conflicts         glue         remaining
c
c B 44.10 47 316 60 16066 561056 47338 49% 17 364869 2352 75%
c s 44.21 48 319 60 16066 562511 48667 49% 17 364861 2352 75%
c - 44.59 51 315 61 16069 567338 34332 48% 17 364861 2352 75%
c u 45.25 51 304 61 16074 577517 42354 46% 17 364861 2352 75%
c v 45.32 51 304 61 16074 577517 42148 46% 17 364861 2352 75%
c - 46.10 52 293 62 16080 585939 34082 45% 17 364861 2352 75%
c ] 46.56 38 287 62 16081 594736 42126 45% 17 364861 2352 75%
c 1 46.56 38 95 62 16081 594736 42126 15% 8 364861 2352 75%
c
c ---- [ result ] ------------------------------------------------------------
c
s SATISFIABLE
v 1 2 3 -4 -5 6 7 -8 -9 -10 -11 12 -13 -14 15 -16 17 -18 -19 20 -21 -22 23 -24
v -25 -26 27 -28 -29 30 -31 -32 -33 -34 35 36 37 38 39 -40 -41 -42 -43 -44 -45
v -46 -47 -48 -49 50 -51 -52 53 -54 55 -56 57 58 59 -60 61 62 63 -64 -65 66
v -67 68 -69 70 71 72 -73 -74 -75 76 77 -78 -79 -80 -81 -82 -83 -84 -85 86 -87
v -88 -89 -90 91 -92 -93 94 95 96 -97 98 99 -100 101 -102 -103 104 105 -106
v 107 108 109 -110 -111 -112 -113 -114 -115 116 117 118 -119 -120 121 122 123
v -124 -125 126 -127 -128 129 130 131 132 133 -134 -135 136 137 138 -139 140
v -141 142 143 144 -145 -146 -147 -148 -149 -150 -151 -152 -153 -154 -155 156
v 157 -158 -159 -160 -161 162 -163 -164 165 -166 -167 -168 -169 170 171 -172
v -173 -174 175 -176 -177 -178 -179 -180 181 -182 -183 184 185 186 187 -188
v -189 -190 191 -192 -193 194 -195 -196 -197 -198 -199 -200 -201 202 203 204
v 205 206 -207 208 -209 -210 -211 -212 -213 -214 215 216 -217 -218 -219 -220
v 221 -222 223 -224 -225 -226 227 228 229 -230 231 -232 233 -234 235 236 -237
v -238 239 -240 -241 -242 -243 244 245 246 247 248 -249 250 251 252 253 -254
v -255 -256 257 -258 -259 260 -261 -262 -263 264 -265 266 267 -268 -269 270
v 271 -272 -273 -274 -275 276 -277 -278 279 -280 -281 -282 283 -284 -285 -286
v -287 -288 289 290 291 -292 293 294 -295 296 297 298 -299 -300 -301 -302 -303
v 304 -305 -306 -307 -308 -309 310 311 -312 -313 314 -315 -316 -317 318 -319
v -320 -321 322 -323 324 -325 326 -327 328 -329 -330 -331 332 -333 334 -335
v 336 -337 -338 339 340 -341 342 343 344 345 -346 -347 -348 -349 350 -351 -352
v -353 354 -355 -356 357 358 -359 360 361 -362 -363 -364 -365 366 -367 -368
v -369 -370 371 -372 -373 374 -375 376 377 -378 -379 380 -381 -382 -383 -384
v 385 -386 387 388 -389 390 391 392 -393 -394 395 -396 -397 -398 -399 400 -401
v -402 403 404 405 -406 -407 408 -409 410 -411 412 413 -414 415 -416 -417 -418
v 419 420 -421 -422 -423 -424 -425 426 -427 -428 -429 430 -431 -432 -433 -434
v -435 436 -437 438 -439 440 -441 442 -443 -444 -445 446 447 -448 -449 450
v -451 452 453 454 -455 456 -457 -458 -459 -460 461 462 -463 -464 -465 466 467
v 468 -469 470 471 -472 -473 474 475 -476 477 -478 -479 -480 -481 482 483 -484
v -485 486 -487 -488 -489 490 491 -492 493 -494 495 -496 -497 -498 -499 500
v -501 -502 -503 -504 -505 506 507 -508 -509 510 511 -512 -513 -514 515 516
v -517 -518 519 -520 -521 -522 -523 -524 525 -526 -527 -528 -529 530 -531 532
v -533 534 -535 536 -537 -538 -539 -540 -541 -542 543 544 545 546 -547 548 549
v -550 551 552 -553 -554 -555 556 557 -558 -559 -560 -561 -562 563 564 565 566
v 567 -568 569 570 -571 -572 -573 -574 575 -576 -577 -578 -579 -580 581 -582
v -583 -584 585 -586 -587 -588 589 -590 591 -592 -593 -594 -595 -596 -597 598
v -599 600 -601 -602 603 -604 -605 -606 -607 608 -609 610 611 -612 613 -614
v 615 616 617 618 -619 620 621 -622 623 -624 625 -626 -627 628 629 630 631 632
v 633 634 635 636 637 -638 -639 640 -641 -642 -643 644 -645 -646 -647 -648
v -649 -650 -651 -652 653 654 -655 -656 -657 -658 659 -660 661 -662 663 664
v -665 666 -667 -668 669 -670 671 -672 -673 -674 675 -676 -677 -678 679 680
v 681 -682 -683 -684 -685 -686 -687 -688 689 -690 -691 -692 -693 -694 695 -696
v 697 698 699 -700 701 -702 -703 -704 -705 -706 707 -708 -709 710 711 -712
v -713 714 -715 -716 -717 -718 -719 -720 721 -722 -723 724 -725 726 -727 -728
v -729 -730 -731 732 733 -734 -735 -736 737 738 -739 740 741 742 -743 744 -745
v 746 -747 -748 749 -750 -751 -752 753 -754 755 756 -757 758 -759 760 761 762
v -763 -764 -765 -766 767 768 769 -770 -771 772 -773 774 -775 776 -777 778 779
v -780 781 -782 -783 -784 785 -786 -787 788 -789 -790 -791 -792 793 -794 -795
v -796 797 -798 -799 800 801 -802 803 -804 -805 -806 807 -808 -809 -810 -811
v 812 -813 -814 -815 816 817 -818 -819 -820 821 822 -823 824 825 826 -827 -828
v -829 -830 -831 832 -833 834 -835 -836 -837 838 -839 -840 841 -842 843 -844
v -845 -846 -847 -848 -849 -850 -851 852 -853 854 -855 856 -857 -858 -859 860
v -861 -862 863 -864 865 866 -867 -868 -869 870 -871 -872 -873 -874 875 876
v -877 -878 -879 880 -881 -882 -883 -884 885 -886 -887 -888 -889 -890 891 -892
v -893 894 -895 -896 897 898 -899 900 901 902 -903 -904 905 -906 -907 908 909
v 910 -911 -912 -913 -914 915 -916 -917 -918 -919 -920 -921 922 -923 -924 925
v 926 -927 -928 -929 930 -931 -932 -933 934 -935 -936 -937 -938 939 -940 -941
v -942 -943 -944 945 946 947 -948 -949 -950 951 -952 -953 954 -955 956 -957
v 958 959 -960 961 -962 -963 -964 -965 -966 -967 968 -969 -970 971 972 -973
v -974 -975 976 977 978 -979 -980 -981 982 -983 -984 985 -986 -987 -988 989
v 990 -991 992 993 -994 -995 996 997 -998 -999 -1000 -1001 -1002 -1003 -1004
v 1005 -1006 -1007 1008 -1009 -1010 -1011 1012 1013 -1014 -1015 -1016 -1017
v -1018 -1019 1020 -1021 1022 1023 -1024 -1025 1026 -1027 -1028 1029 1030 1031
v 1032 -1033 -1034 -1035 -1036 -1037 1038 1039 -1040 1041 1042 -1043 1044
v -1045 -1046 -1047 -1048 -1049 -1050 -1051 -1052 -1053 1054 1055 1056 1057
v 1058 -1059 1060 -1061 1062 1063 -1064 1065 -1066 1067 1068 -1069 -1070 -1071
v -1072 1073 1074 1075 1076 -1077 -1078 -1079 1080 -1081 -1082 -1083 -1084
v -1085 -1086 1087 1088 -1089 -1090 1091 1092 -1093 1094 -1095 -1096 1097 1098
v -1099 -1100 -1101 -1102 1103 -1104 -1105 1106 -1107 1108 -1109 1110 -1111
v -1112 1113 -1114 -1115 1116 -1117 -1118 -1119 -1120 -1121 -1122 -1123 1124
v 1125 1126 -1127 1128 1129 1130 1131 -1132 -1133 1134 -1135 -1136 -1137 -1138
v 1139 1140 1141 1142 -1143 -1144 -1145 -1146 -1147 1148 1149 1150 -1151 1152
v -1153 1154 -1155 -1156 -1157 1158 -1159 -1160 -1161 1162 1163 -1164 -1165
v -1166 1167 -1168 -1169 -1170 -1171 -1172 -1173 1174 -1175 1176 1177 -1178
v -1179 -1180 -1181 -1182 1183 -1184 1185 1186 -1187 -1188 1189 -1190 1191
v 1192 -1193 -1194 -1195 1196 -1197 -1198 1199 1200 1201 -1202 -1203 -1204
v -1205 -1206 1207 1208 -1209 1210 -1211 -1212 1213 -1214 1215 -1216 -1217
v 1218 1219 -1220 -1221 1222 -1223 -1224 -1225 -1226 -1227 -1228 -1229 -1230
v -1231 -1232 -1233 -1234 -1235 -1236 -1237 -1238 -1239 -1240 1241 -1242 -1243
v -1244 1245 1246 -1247 1248 -1249 -1250 -1251 1252 -1253 1254 1255 -1256 1257
v 1258 1259 1260 1261 -1262 -1263 1264 -1265 -1266 -1267 1268 -1269 -1270 1271
v 1272 -1273 -1274 1275 1276 -1277 -1278 1279 -1280 1281 1282 1283 -1284 1285
v 1286 -1287 1288 -1289 1290 1291 -1292 1293 1294 1295 -1296 -1297 1298 -1299
v -1300 -1301 -1302 -1303 -1304 1305 -1306 1307 -1308 -1309 -1310 -1311 1312
v -1313 -1314 -1315 -1316 1317 1318 -1319 -1320 -1321 -1322 -1323 1324 -1325
v -1326 -1327 -1328 1329 1330 -1331 1332 -1333 -1334 -1335 1336 1337 -1338
v -1339 1340 1341 1342 -1343 -1344 1345 -1346 -1347 -1348 1349 1350 -1351
v -1352 1353 1354 -1355 -1356 -1357 -1358 1359 -1360 -1361 -1362 1363 -1364
v 1365 1366 1367 -1368 1369 -1370 -1371 1372 -1373 -1374 -1375 -1376 -1377
v -1378 1379 -1380 -1381 1382 -1383 1384 -1385 -1386 -1387 -1388 1389 1390
v -1391 -1392 -1393 1394 1395 -1396 1397 1398 1399 -1400 -1401 1402 1403 1404
v -1405 -1406 -1407 1408 1409 -1410 -1411 1412 1413 -1414 -1415 -1416 1417
v -1418 -1419 -1420 -1421 -1422 -1423 1424 1425 -1426 -1427 -1428 1429 1430
v 1431 1432 -1433 1434 1435 -1436 -1437 1438 -1439 -1440 1441 -1442 1443 -1444
v -1445 -1446 -1447 -1448 -1449 1450 1451 -1452 1453 -1454 1455 -1456 -1457
v -1458 -1459 -1460 -1461 -1462 1463 -1464 -1465 -1466 1467 -1468 -1469 -1470
v -1471 1472 -1473 1474 -1475 1476 1477 1478 1479 -1480 -1481 -1482 1483 1484
v -1485 -1486 -1487 1488 -1489 1490 1491 -1492 -1493 -1494 1495 1496 -1497
v 1498 1499 -1500 1501 -1502 -1503 -1504 -1505 1506 -1507 1508 -1509 -1510
v -1511 -1512 1513 -1514 1515 1516 -1517 -1518 -1519 -1520 1521 -1522 -1523
v -1524 -1525 1526 -1527 -1528 -1529 -1530 1531 1532 1533 -1534 1535 -1536
v 1537 -1538 1539 1540 -1541 1542 -1543 -1544 -1545 -1546 1547 -1548 -1549
v 1550 -1551 -1552 -1553 -1554 -1555 1556 -1557 1558 -1559 1560 -1561 1562
v 1563 -1564 -1565 -1566 1567 -1568 1569 -1570 1571 1572 1573 -1574 -1575 1576
v 1577 -1578 1579 1580 1581 1582 1583 1584 1585 1586 1587 1588 -1589 -1590
v 1591 -1592 -1593 -1594 1595 1596 1597 1598 1599 1600 1601 -1602 -1603 -1604
v 1605 1606 1607 1608 -1609 1610 -1611 1612 1613 -1614 1615 1616 1617 1618
v 1619 1620 1621 1622 1623 1624 -1625 1626 1627 1628 -1629 -1630 -1631 1632
v 1633 -1634 -1635 1636 -1637 1638 1639 -1640 -1641 -1642 -1643 -1644 1645
v 1646 1647 1648 1649 1650 1651 -1652 -1653 -1654 -1655 1656 1657 1658 1659
v 1660 -1661 -1662 1663 1664 -1665 1666 1667 -1668 -1669 -1670 -1671 -1672
v -1673 -1674 -1675 1676 -1677 1678 1679 -1680 -1681 -1682 -1683 -1684 1685
v 1686 -1687 1688 1689 -1690 1691 1692 1693 1694 -1695 -1696 -1697 -1698 -1699
v -1700 -1701 -1702 1703 -1704 -1705 1706 1707 1708 -1709 -1710 -1711 1712
v -1713 -1714 -1715 1716 1717 1718 -1719 -1720 1721 1722 1723 -1724 -1725
v -1726 1727 -1728 1729 1730 1731 1732 -1733 -1734 1735 1736 -1737 1738 -1739
v -1740 -1741 1742 1743 1744 1745 -1746 1747 -1748 -1749 -1750 1751 1752 1753
v -1754 -1755 1756 1757 1758 1759 1760 1761 1762 1763 1764 1765 -1766 -1767
v -1768 -1769 -1770 -1771 1772 1773 1774 1775 1776 1777 1778 -1779 1780 1781
v 1782 1783 1784 1785 1786 -1787 -1788 -1789 1790 -1791 -1792 1793 1794 -1795
v -1796 -1797 -1798 -1799 -1800 1801 -1802 1803 1804 -1805 1806 1807 1808
v -1809 1810 -1811 -1812 -1813 -1814 -1815 1816 -1817 1818 1819 -1820 1821
v 1822 -1823 -1824 -1825 1826 -1827 -1828 1829 1830 -1831 1832 1833 -1834 1835
v -1836 1837 1838 1839 1840 -1841 -1842 -1843 -1844 -1845 1846 1847 -1848 1849
v -1850 -1851 -1852 -1853 -1854 1855 -1856 1857 1858 1859 1860 -1861 -1862
v 1863 -1864 -1865 1866 -1867 -1868 -1869 -1870 -1871 1872 -1873 1874 1875
v 1876 -1877 1878 -1879 -1880 -1881 1882 1883 1884 -1885 -1886 -1887 -1888
v 1889 -1890 -1891 -1892 1893 -1894 1895 -1896 1897 -1898 -1899 1900 -1901
v -1902 1903 -1904 -1905 1906 -1907 1908 -1909 -1910 -1911 -1912 1913 -1914
v 1915 -1916 1917 1918 -1919 -1920 -1921 1922 1923 -1924 1925 1926 -1927 -1928
v -1929 -1930 1931 1932 -1933 1934 1935 1936 -1937 1938 -1939 -1940 -1941
v -1942 -1943 -1944 1945 -1946 -1947 1948 -1949 -1950 1951 -1952 -1953 1954
v 1955 1956 1957 -1958 1959 1960 1961 -1962 -1963 1964 -1965 1966 1967 1968
v 1969 -1970 1971 -1972 1973 -1974 -1975 1976 -1977 -1978 1979 -1980 -1981
v -1982 -1983 1984 1985 -1986 -1987 1988 -1989 -1990 -1991 -1992 -1993 -1994
v -1995 -1996 1997 -1998 -1999 2000 -2001 -2002 -2003 -2004 2005 -2006 2007
v -2008 2009 2010 -2011 -2012 -2013 -2014 2015 2016 2017 -2018 2019 2020 2021
v -2022 -2023 2024 2025 -2026 2027 -2028 2029 -2030 -2031 2032 2033 -2034 2035
v 2036 -2037 -2038 2039 -2040 2041 -2042 -2043 2044 2045 2046 2047 2048 2049
v 2050 2051 2052 2053 2054 2055 2056 2057 2058 2059 2060 2061 2062 2063 -2064
v 2065 -2066 -2067 -2068 -2069 -2070 -2071 2072 -2073 -2074 2075 2076 2077
v 2078 2079 2080 2081 -2082 2083 2084 2085 2086 -2087 -2088 2089 2090 2091
v -2092 -2093 -2094 -2095 -2096 -2097 -2098 2099 2100 -2101 -2102 2103 2104
v -2105 -2106 -2107 2108 -2109 2110 -2111 -2112 -2113 2114 2115 2116 -2117
v 2118 2119 -2120 2121 -2122 -2123 -2124 -2125 2126 -2127 2128 2129 2130 -2131
v -2132 -2133 2134 2135 2136 2137 2138 2139 -2140 2141 2142 2143 2144 2145
v 2146 2147 -2148 -2149 -2150 -2151 -2152 -2153 -2154 -2155 2156 2157 2158
v 2159 2160 2161 2162 2163 -2164 -2165 2166 -2167 2168 2169 -2170 -2171 2172
v 2173 2174 -2175 -2176 2177 -2178 -2179 -2180 -2181 -2182 2183 2184 2185
v -2186 -2187 2188 2189 2190 -2191 2192 2193 2194 -2195 2196 2197 2198 -2199
v 2200 2201 2202 -2203 -2204 -2205 -2206 -2207 -2208 -2209 -2210 2211 2212
v 2213 -2214 -2215 2216 2217 2218 2219 -2220 2221 2222 2223 -2224 2225 2226
v -2227 2228 2229 -2230 -2231 -2232 -2233 -2234 -2235 -2236 2237 -2238 2239
v -2240 2241 2242 -2243 2244 -2245 -2246 -2247 2248 -2249 2250 2251 -2252 2253
v -2254 -2255 2256 2257 -2258 -2259 -2260 -2261 -2262 -2263 -2264 -2265 2266
v 2267 2268 2269 -2270 2271 2272 2273 2274 2275 2276 -2277 2278 2279 2280 2281
v 2282 2283 2284 2285 2286 -2287 -2288 -2289 -2290 -2291 2292 -2293 2294 -2295
v -2296 2297 2298 2299 2300 2301 2302 2303 2304 -2305 2306 2307 -2308 2309
v 2310 -2311 2312 2313 2314 2315 2316 -2317 -2318 -2319 -2320 -2321 2322 2323
v 2324 -2325 2326 -2327 2328 -2329 -2330 -2331 2332 2333 2334 -2335 -2336
v -2337 -2338 2339 2340 -2341 2342 -2343 -2344 -2345 -2346 2347 -2348 -2349
v 2350 2351 -2352 -2353 -2354 -2355 -2356 -2357 -2358 -2359 -2360 -2361 -2362
v -2363 -2364 -2365 -2366 -2367 -2368 -2369 -2370 -2371 -2372 -2373 -2374
v -2375 -2376 -2377 -2378 -2379 -2380 -2381 -2382 -2383 -2384 -2385 -2386
v -2387 -2388 -2389 -2390 -2391 -2392 -2393 -2394 -2395 -2396 -2397 -2398
v -2399 -2400 -2401 -2402 -2403 -2404 -2405 -2406 -2407 -2408 -2409 -2410
v -2411 -2412 -2413 -2414 -2415 -2416 -2417 -2418 -2419 -2420 -2421 -2422
v -2423 -2424 -2425 -2426 -2427 -2428 -2429 -2430 -2431 -2432 -2433 -2434
v -2435 -2436 -2437 -2438 -2439 -2440 -2441 -2442 -2443 -2444 -2445 -2446
v -2447 -2448 -2449 -2450 -2451 -2452 -2453 -2454 -2455 -2456 -2457 -2458
v -2459 -2460 -2461 -2462 -2463 -2464 -2465 -2466 -2467 -2468 -2469 -2470
v -2471 -2472 -2473 -2474 -2475 -2476 -2477 -2478 -2479 -2480 -2481 -2482
v -2483 -2484 -2485 -2486 -2487 -2488 -2489 -2490 -2491 -2492 -2493 -2494
v -2495 -2496 -2497 -2498 -2499 -2500 -2501 -2502 -2503 -2504 -2505 -2506
v -2507 -2508 -2509 -2510 -2511 -2512 -2513 -2514 -2515 -2516 -2517 -2518
v -2519 -2520 -2521 -2522 -2523 -2524 -2525 -2526 -2527 -2528 -2529 -2530
v -2531 -2532 -2533 -2534 -2535 -2536 -2537 -2538 -2539 -2540 -2541 -2542
v -2543 -2544 -2545 -2546 -2547 -2548 -2549 -2550 -2551 -2552 -2553 -2554
v -2555 -2556 -2557 -2558 -2559 -2560 -2561 -2562 -2563 -2564 -2565 -2566
v -2567 -2568 -2569 -2570 -2571 -2572 -2573 -2574 -2575 -2576 -2577 -2578
v -2579 -2580 -2581 -2582 -2583 -2584 -2585 -2586 -2587 -2588 -2589 -2590
v -2591 -2592 -2593 -2594 -2595 -2596 -2597 -2598 -2599 -2600 -2601 -2602
v -2603 -2604 -2605 -2606 -2607 -2608 -2609 -2610 -2611 -2612 -2613 -2614
v -2615 -2616 -2617 -2618 -2619 -2620 -2621 -2622 -2623 -2624 -2625 -2626
v -2627 -2628 -2629 -2630 -2631 -2632 -2633 -2634 -2635 -2636 -2637 -2638
v -2639 -2640 -2641 -2642 -2643 -2644 -2645 -2646 -2647 -2648 -2649 -2650
v -2651 -2652 -2653 -2654 -2655 -2656 -2657 -2658 -2659 -2660 -2661 2662 2663
v -2664 -2665 2666 2667 -2668 -2669 -2670 -2671 -2672 2673 -2674 -2675 -2676
v 2677 -2678 2679 -2680 2681 2682 2683 -2684 2685 -2686 -2687 -2688 -2689 2690
v -2691 2692 -2693 2694 -2695 2696 -2697 -2698 -2699 -2700 2701 2702 -2703
v -2704 2705 -2706 2707 -2708 2709 -2710 -2711 -2712 2713 -2714 -2715 -2716
v -2717 2718 -2719 2720 -2721 2722 -2723 -2724 2725 -2726 -2727 -2728 2729
v -2730 2731 -2732 2733 -2734 2735 -2736 2737 2738 -2739 -2740 2741 -2742
v -2743 -2744 -2745 2746 -2747 2748 -2749 2750 2751 2752 2753 2754 -2755 -2756
v 2757 -2758 -2759 2760 2761 -2762 2763 -2764 2765 -2766 -2767 -2768 2769
v -2770 -2771 -2772 -2773 2774 2775 -2776 -2777 2778 -2779 -2780 -2781 -2782
v 2783 -2784 2785 -2786 -2787 -2788 2789 -2790 2791 -2792 2793 2794 2795 -2796
v 2797 2798 2799 -2800 -2801 -2802 -2803 -2804 -2805 -2806 -2807 -2808 -2809
v -2810 -2811 -2812 -2813 -2814 -2815 -2816 -2817 -2818 -2819 -2820 -2821
v -2822 -2823 -2824 -2825 -2826 -2827 -2828 -2829 -2830 -2831 -2832 -2833
v -2834 -2835 -2836 -2837 -2838 -2839 -2840 -2841 -2842 -2843 -2844 -2845
v -2846 -2847 -2848 -2849 -2850 -2851 -2852 -2853 -2854 -2855 -2856 -2857
v -2858 -2859 -2860 -2861 -2862 -2863 -2864 -2865 -2866 -2867 -2868 -2869
v -2870 -2871 -2872 -2873 -2874 -2875 -2876 -2877 -2878 -2879 -2880 -2881
v -2882 -2883 -2884 -2885 -2886 -2887 -2888 -2889 -2890 -2891 -2892 -2893
v -2894 -2895 -2896 -2897 -2898 -2899 -2900 -2901 -2902 -2903 -2904 -2905
v -2906 -2907 -2908 -2909 -2910 -2911 -2912 -2913 -2914 -2915 -2916 -2917
v -2918 -2919 -2920 -2921 -2922 -2923 -2924 -2925 -2926 -2927 -2928 -2929
v -2930 -2931 -2932 -2933 -2934 -2935 -2936 -2937 -2938 -2939 -2940 -2941
v -2942 -2943 -2944 -2945 -2946 -2947 -2948 -2949 -2950 -2951 -2952 -2953
v -2954 -2955 -2956 -2957 -2958 -2959 -2960 -2961 -2962 -2963 -2964 -2965
v -2966 -2967 -2968 -2969 -2970 -2971 -2972 -2973 -2974 -2975 -2976 -2977
v -2978 -2979 -2980 -2981 -2982 -2983 -2984 -2985 -2986 -2987 -2988 -2989
v -2990 -2991 -2992 -2993 -2994 -2995 -2996 -2997 -2998 -2999 -3000 -3001
v -3002 -3003 -3004 -3005 -3006 -3007 -3008 -3009 -3010 -3011 -3012 -3013
v -3014 -3015 -3016 -3017 -3018 -3019 -3020 -3021 -3022 -3023 -3024 -3025
v -3026 -3027 -3028 -3029 -3030 -3031 -3032 -3033 -3034 -3035 -3036 -3037
v -3038 -3039 -3040 -3041 -3042 -3043 -3044 -3045 -3046 -3047 -3048 -3049
v -3050 -3051 -3052 -3053 -3054 -3055 -3056 -3057 -3058 -3059 -3060 -3061
v -3062 -3063 -3064 -3065 -3066 -3067 -3068 -3069 -3070 -3071 -3072 -3073
v -3074 -3075 -3076 -3077 -3078 -3079 -3080 -3081 -3082 -3083 -3084 -3085
v -3086 -3087 -3088 -3089 -3090 -3091 -3092 -3093 -3094 -3095 -3096 -3097
v -3098 -3099 -3100 -3101 -3102 -3103 -3104 -3105 -3106 -3107 -3108 -3109
v -3110 -3111 -3112 -3113 -3114 -3115 -3116 -3117 -3118 -3119 -3120 -3121
v -3122 -3123 -3124 -3125 -3126 -3127 -3128 -3129 -3130 -3131 -3132 -3133
v -3134 -3135 -3136 0
c
c ---- [ profiling ] ---------------------------------------------------------
c
c          31.82   68.35 %  search
c          18.56   39.85 %  stable
c          14.56   31.27 %  simplify
c          13.27   28.50 %  focused
c           6.90   14.81 %  probe
c           6.34   13.62 %  eliminate
c           4.24    9.10 %  vivify
c           2.28    4.90 %  substitute
c           0.86    1.84 %  walking
c           0.59    1.27 %  reduce
c           0.46    1.00 %  autarky
c           0.18    0.38 %  parse
c           0.18    0.38 %  transitive
c           0.08    0.18 %  ternary
c           0.07    0.14 %  failed
c =============================================
c          46.56  100.00 %  total
c
c ---- [ statistics ] --------------------------------------------------------
c
c conflicts:                           594736            12772.13 per second
c decisions:                          2429724                4.09 per conflict
c propagations:                      12815911           275225    per second
c reductions:                              62             9593    interval
c rephased:                                33            18022    interval
c restarts:                             16081               36.98 interval
c
c ---- [ resources ] ---------------------------------------------------------
c
c maximum-resident-set-size:         55934976 bytes         53 MB
c process-time:                            46s              46.56 seconds
c
c ---- [ shutting down ] -----------------------------------------------------
c
c exit 10
